1, 14
14, 1
3, 5
5, 3
3, 14
14, 3
4, 5
5, 4
4, 14
14, 4
5, 3
3, 5
5, 4
4, 5
5, 10
10, 5
5, 12
12, 5
5, 15
15, 5
8, 14
14, 8
10, 5
5, 10
10, 14
14, 10
12, 5
5, 12
12, 14
14, 12
14, 1
1, 14
14, 3
3, 14
14, 4
4, 14
14, 8
8, 14
14, 10
10, 14
14, 12
12, 14
14, 15
15, 14
15, 5
5, 15
15, 14
14, 15
5, 11
11, 5
14, 11
11, 14
